n = 21;
k = 3;
roles = [
{f, m},
{g, f},
{d, f},
{g, m},
{f, m},
{g, f},
{m, f},
{d, m},
{m, g},
{f, d},
{f, d},
{g, f},
{m, f},
{g, d},
{m, d},
{g, m},
{f, m},
{d, f},
{m, g},
{d, f},
{f, m}
];
num_pairs = 2;
player1 = [9, 4];
player2 = [18, 14];
